p cnf 960 1244
c ind 662 663 664 677 684 710 771 772 785 792 0
c ind 796 798 801 817 819 822 834 835 854 856 0
c ind 860 871 872 876 877 878 882 884 655 770 0
c ind 685 697 656 657 769 660 661 768 945 927 0
c ind 936 950 931 941 958 944 926 935 949 930 0
c ind 940 957 913 914 943 925 934 948 929 939 0
c ind 912 956 942 924 933 947 911 928 938 955 0
c ind 919 923 953 909 910 908 903 921 907 951 0
c ind 906 905 904 922 952 932 946 937 954 920 0
c ind 901 902 658 659 900 895 899 898 897 896 0
c ind 916 893 894 886 887 892 917 891 890 889 0
c ind 888 866 867 865 864 863 885 875 873 874 0
c ind 862 861 883 870 859 881 879 880 868 869 0
c ind 858 857 850 918 915 855 853 851 852 849 0
c ind 842 841 848 847 846 845 844 843 840 839 0
c ind 838 837 836 654 829 828 826 827 825 824 0
c ind 830 831 823 821 832 820 833 818 816 814 0
c ind 815 813 812 811 810 809 808 807 805 806 0
c ind 804 803 802 800 799 797 795 793 794 775 0
c ind 791 786 790 787 788 782 789 784 780 781 0
c ind 783 779 774 778 776 777 773 767 760 752 0
c ind 766 765 764 667 763 746 745 744 762 743 0
c ind 761 742 741 740 759 758 757 756 755 754 0
c ind 753 751 750 749 748 747 739 732 724 738 0
c ind 737 736 735 718 717 716 734 715 733 714 0
c ind 713 712 731 730 729 728 727 726 725 723 0
c ind 722 721 720 719 711 709 707 708 698 699 0
c ind 706 705 704 703 702 700 701 694 693 695 0
c ind 696 692 691 690 689 687 688 686 683 682 0
c ind 678 679 680 681 674 676 673 672 675 666 0
c ind 671 665 670 668 669 1 0
c ret 596 597 598 599 600 601 602 603 604 605 0
c ret 606 607 608 609 610 611 612 613 614 615 0
c ret 616 617 618 619 620 621 622 291 297 623 0
c ret 298 624 299 625 300 626 301 302 303 304 0
c ret 305 627 306 307 308 309 310 311 312 628 0
c ret 313 629 314 315 630 316 317 631 318 319 0
c ret 632 320 321 322 633 323 324 634 325 326 0
c ret 327 635 636 328 329 330 331 332 333 292 0
c ret 334 335 336 337 637 338 638 339 340 639 0
c ret 640 341 342 343 641 344 345 346 347 348 0
c ret 642 349 350 643 351 352 644 353 645 354 0
c ret 355 356 357 358 359 646 647 360 361 362 0
c ret 363 648 364 365 366 367 368 369 370 371 0
c ret 649 372 373 374 293 375 650 376 651 377 0
c ret 378 652 379 653 380 381 382 383 384 385 0
c ret 386 387 388 389 390 391 392 393 394 395 0
c ret 396 397 398 399 400 401 402 403 404 405 0
c ret 406 407 408 409 410 411 412 413 414 294 0
c ret 415 416 417 418 419 420 421 422 423 424 0
c ret 425 426 427 428 429 430 431 432 433 434 0
c ret 435 436 437 438 439 440 441 442 443 444 0
c ret 445 446 447 448 449 450 451 452 453 454 0
c ret 455 456 457 458 459 460 461 462 463 464 0
c ret 465 466 467 468 469 470 471 472 473 474 0
c ret 475 476 477 478 479 480 481 482 483 484 0
c ret 485 295 486 487 488 489 490 491 492 493 0
c ret 494 495 496 497 498 499 500 501 502 503 0
c ret 504 505 506 507 508 509 510 511 512 513 0
c ret 514 515 516 517 518 519 520 521 522 523 0
c ret 524 296 525 526 527 528 529 530 531 532 0
c ret 533 534 535 536 537 538 539 540 541 542 0
c ret 543 544 545 546 547 548 549 550 551 552 0
c ret 553 554 555 556 557 558 559 560 561 562 0
c ret 563 564 565 566 567 568 569 570 571 572 0
c ret 573 574 575 576 577 578 579 580 581 582 0
c ret 583 584 585 586 587 588 589 590 591 592 0
c ret 593 594 595 0
2 4 5 -287 0
2 3 5 -287 0
-2 287 0
-2 -5 0
-2 -3 -4 0
3 523 0
3 -524 530 0
3 524 531 0
-3 -523 524 -531 0
-3 -523 -524 -530 0
4 523 0
4 -524 -530 0
4 524 -531 0
-4 -523 524 531 0
-4 -523 -524 530 0
5 6 56 105 -126 0
5 -6 -56 105 -126 0
-5 -105 0
-5 6 -56 0
-5 126 0
-5 -6 56 0
6 7 -13 0
6 7 50 0
-6 -7 0
-6 13 -50 0
7 -8 -9 0
7 -9 -12 0
-7 9 0
-7 8 12 0
8 886 0
8 -887 -893 0
8 887 -894 0
-8 -886 887 894 0
-8 -886 -887 893 0
9 -10 -11 0
-8 9 -11 0
-9 11 0
8 -9 10 0
-8 10 0
10 895 -902 0
10 -895 -901 0
8 -10 -895 901 0
8 -10 895 902 0
11 886 0
11 -887 893 0
11 887 894 0
-11 -886 887 -894 0
-11 -886 -887 -893 0
-8 12 0
12 -895 901 0
12 895 902 0
8 -12 -895 -901 0
8 -12 895 -902 0
13 -14 -49 -958 0
13 14 -15 -49 0
-13 49 0
-13 -14 958 0
-13 14 15 0
14 881 -883 0
-14 -881 0
-14 883 0
15 -16 -957 0
15 16 -17 0
-15 -16 957 0
-15 16 17 0
16 853 -855 0
-16 -853 0
-16 855 0
17 18 41 48 0
17 18 41 -44 0
-17 -18 0
-17 -41 0
-17 44 -48 0
18 -39 654 -829 0
18 19 654 829 0
-18 -654 0
-18 39 -829 0
-18 -19 829 0
19 -20 -954 0
-19 954 0
-19 20 0
20 -21 35 0
-20 21 0
-20 -35 0
21 -28 29 0
21 22 29 -719 0
-21 -29 0
-21 -22 28 0
-21 28 719 0
22 23 0
22 26 -718 0
22 26 724 0
-22 -23 -26 0
-22 -23 718 -724 0
23 -24 25 -712 -719 0
-23 24 0
-23 -25 0
-23 712 0
-23 719 0
24 713 714 715 0
-24 -713 0
-24 -715 0
-24 -714 0
25 716 -717 0
-25 -716 0
-25 717 0
26 27 718 724 -725 0
-26 -718 0
-26 -27 0
-26 725 0
-26 -724 0
27 732 733 0
-27 -732 0
-27 -733 0
24 28 -712 0
25 28 -712 -718 0
-28 712 0
-24 -28 718 0
-24 -25 -28 0
29 31 34 0
29 31 -33 0
29 30 31 0
-29 -31 0
-29 -30 33 -34 0
30 741 742 743 0
-30 -741 0
-30 -743 0
-30 -742 0
30 31 -740 0
31 32 -740 -746 0
-31 740 0
-30 -31 746 0
-30 -31 -32 0
32 744 -745 0
-32 -744 0
-32 745 0
33 752 753 0
33 752 760 761 0
-33 -752 0
-33 -753 -760 0
-33 -753 -761 0
32 34 -740 746 -747 0
-34 747 0
-32 -34 0
-34 740 0
-34 -746 0
35 -36 -686 0
35 -38 -686 0
35 -37 -686 0
-35 686 0
-35 36 37 38 0
36 -687 688 689 0
-36 687 0
-36 -689 0
-36 -688 0
37 692 695 696 0
-37 -692 0
-37 -696 0
-37 -695 0
38 -692 693 694 0
-38 692 0
-38 -694 0
-38 -693 0
39 -40 955 0
19 39 40 0
-39 -40 -955 0
-19 -39 40 0
40 795 -797 0
-40 -795 0
-40 797 0
41 -42 -43 -839 0
41 -42 -43 -840 0
-41 43 0
-41 42 0
-41 839 840 0
42 842 843 844 845 0
-42 -845 0
-42 -844 0
-42 -842 0
-42 -843 0
43 -836 -837 -838 841 0
-43 838 0
-43 -841 0
-43 836 0
-43 837 0
39 44 -45 0
-39 -44 0
-44 45 0
45 46 47 0
-45 -46 0
-45 -47 0
46 808 809 810 0
-46 -808 0
-46 -810 0
-46 -809 0
47 816 -818 0
-47 -816 0
-47 818 0
47 48 -654 0
48 -654 956 0
-48 654 0
-47 -48 -956 0
49 -850 857 0
-49 850 0
-49 -857 0
50 -51 -850 0
15 17 50 0
15 50 -850 0
17 50 -51 0
-17 -50 850 0
-15 -50 51 0
51 53 857 0
51 -52 53 0
51 53 850 0
-51 -53 0
-51 52 -850 -857 0
52 -858 859 0
-52 858 0
-52 -859 0
53 54 -55 0
-53 -54 0
-53 55 0
54 861 -862 -863 864 0
-54 -861 0
-54 -864 0
-54 863 0
-54 862 0
55 -850 -857 -858 859 0
-55 858 0
-55 -859 0
-55 850 0
-55 857 0
56 -57 -60 0
56 -57 99 0
-56 57 0
-56 60 -99 0
57 -58 59 0
-57 58 0
-57 -59 0
58 -552 -581 0
-58 552 0
-58 581 0
-3 -4 59 0
3 -59 0
4 -59 0
60 -61 -98 -653 0
60 61 -62 -98 0
-60 98 0
-60 -61 653 0
-60 61 62 0
61 518 -520 0
-61 -518 0
-61 520 0
62 -63 -652 0
62 63 -64 0
-62 -63 652 0
-62 63 64 0
63 490 -492 0
-63 -490 0
-63 492 0
64 65 90 97 0
64 65 90 -93 0
-64 -65 0
-64 -90 0
-64 93 -97 0
65 -88 291 -466 0
65 66 291 466 0
-65 -291 0
-65 88 -466 0
-65 -66 466 0
66 -67 -649 0
-66 649 0
-66 67 0
67 68 -72 0
-67 -68 0
-67 72 0
68 -69 -323 0
68 -71 -323 0
68 -70 -323 0
-68 323 0
-68 69 70 71 0
69 -324 325 326 0
-69 324 0
-69 -326 0
-69 -325 0
70 329 332 333 0
-70 -329 0
-70 -333 0
-70 -332 0
71 -329 330 331 0
-71 329 0
-71 -331 0
-71 -330 0
72 73 -80 0
72 73 83 -356 0
-72 -73 0
-72 80 -83 0
-72 80 356 0
73 -74 77 0
73 77 377 0
-73 -77 0
-73 74 -377 0
74 -76 380 383 0
74 -75 -76 380 0
-74 -380 0
-74 76 0
-74 75 -383 0
75 381 -382 0
-75 -381 0
-75 382 0
76 378 379 0
-76 -378 0
-76 -379 0
75 -76 77 78 -79 0
76 -77 0
-77 -78 0
-75 -77 0
-77 79 0
78 389 390 0
78 389 397 398 0
-78 -389 0
-78 -390 -397 0
-78 -390 -398 0
79 -377 380 383 -384 0
-79 384 0
-79 -383 0
-79 377 0
-79 -380 0
80 81 -349 0
80 82 -349 -355 0
-80 349 0
-80 -81 355 0
-80 -81 -82 0
81 350 351 352 0
-81 -350 0
-81 -352 0
-81 -351 0
82 353 -354 0
-82 -353 0
-82 354 0
83 84 86 0
-83 -84 0
-83 -86 0
84 -85 355 -361 0
-84 85 0
-84 361 0
-84 -355 0
-81 82 85 -349 -356 0
81 -85 0
-82 -85 0
-85 349 0
-85 356 0
-85 86 -87 -369 0
-85 86 -87 -370 0
-86 87 0
85 -86 0
-86 369 370 0
87 355 361 -362 0
-87 362 0
-87 -361 0
-87 -355 0
88 -89 650 0
66 88 89 0
-88 -89 -650 0
-66 -88 89 0
89 432 -434 0
-89 -432 0
-89 434 0
90 -91 -92 -476 0
90 -91 -92 -477 0
-90 92 0
-90 91 0
-90 476 477 0
91 479 480 481 482 0
-91 -482 0
-91 -481 0
-91 -479 0
-91 -480 0
92 -473 -474 -475 478 0
-92 475 0
-92 -478 0
-92 473 0
-92 474 0
88 93 -94 0
-88 -93 0
-93 94 0
94 95 96 0
-94 -95 0
-94 -96 0
95 445 446 447 0
-95 -445 0
-95 -447 0
-95 -446 0
96 453 -455 0
-96 -453 0
-96 455 0
96 97 -291 0
97 -291 651 0
-97 291 0
-96 -97 -651 0
98 -487 494 0
-98 487 0
-98 -494 0
99 -100 -487 0
62 64 99 0
62 99 -487 0
64 99 -100 0
-64 -99 487 0
-62 -99 100 0
100 102 494 0
100 -101 102 0
100 102 487 0
-100 -102 0
-100 101 -487 -494 0
101 -495 496 0
-101 495 0
-101 -496 0
102 103 -104 0
-102 -103 0
-102 104 0
103 498 -499 -500 501 0
-103 -498 0
-103 -501 0
-103 500 0
-103 499 0
104 -487 -494 -495 496 0
-104 495 0
-104 -496 0
-104 487 0
-104 494 0
105 -106 116 0
-105 106 0
-105 -116 0
7 106 -107 0
7 106 115 0
-7 -106 0
-106 107 -115 0
14 -49 107 -108 0
-14 -49 107 -936 0
49 -107 0
14 -107 108 0
-14 -107 936 0
-16 108 -935 0
16 108 -109 0
-16 -108 935 0
16 -108 109 0
41 109 110 114 0
41 109 110 -113 0
-41 -109 0
-109 -110 0
-109 113 -114 0
110 -112 654 -829 0
110 111 654 829 0
-110 -654 0
-110 112 -829 0
-110 -111 829 0
-20 111 -932 0
-111 932 0
20 -111 0
-40 112 933 0
40 111 112 0
-40 -112 -933 0
40 -111 -112 0
-45 112 113 0
45 -113 0
-112 -113 0
47 114 -654 0
114 -654 934 0
-114 654 0
-47 -114 -934 0
-51 109 115 0
108 115 -850 0
-51 115 -850 0
108 109 115 0
51 -108 -115 0
-109 -115 850 0
-57 116 -117 0
-57 116 125 0
57 -116 0
-116 117 -125 0
61 -98 117 -118 0
-61 -98 117 -631 0
98 -117 0
61 -117 118 0
-61 -117 631 0
-63 118 -630 0
63 118 -119 0
-63 -118 630 0
63 -118 119 0
90 119 120 124 0
90 119 120 -123 0
-90 -119 0
-119 -120 0
-119 123 -124 0
120 -122 291 -466 0
120 121 291 466 0
-120 -291 0
-120 122 -466 0
-120 -121 466 0
-67 121 -627 0
-121 627 0
67 -121 0
-89 122 628 0
89 121 122 0
-89 -122 -628 0
89 -121 -122 0
-94 122 123 0
94 -123 0
-122 -123 0
96 124 -291 0
124 -291 629 0
-124 291 0
-96 -124 -629 0
-100 119 125 0
118 125 -487 0
-100 125 -487 0
118 119 125 0
100 -118 -125 0
-119 -125 487 0
-106 126 -127 -166 0
116 126 -127 -166 0
-126 166 0
-126 127 0
106 -116 -126 0
127 -128 -138 -157 0
127 128 138 148 0
127 128 138 -157 0
127 -128 -138 148 0
-127 128 -138 0
-127 -128 138 0
-127 -148 157 0
7 128 -129 0
7 128 137 0
-7 -128 0
-128 129 -137 0
14 -49 129 -130 0
-14 -49 129 -927 0
49 -129 0
14 -129 130 0
-14 -129 927 0
-16 130 -926 0
16 130 -131 0
-16 -130 926 0
16 -130 131 0
41 131 132 136 0
41 131 132 -135 0
-41 -131 0
-131 -132 0
-131 135 -136 0
132 133 -654 925 0
47 132 133 -654 0
-132 654 0
-132 -133 0
-47 -132 -925 0
-45 133 134 0
45 -133 0
-133 -134 0
20 40 134 0
-40 134 924 0
40 134 659 0
-40 -134 -924 0
-20 40 -134 -659 0
-20 40 135 -659 0
-20 135 -659 829 0
20 -135 0
-135 659 0
-40 -135 -829 0
136 654 924 0
136 654 829 0
40 136 654 0
-136 -654 0
-40 -136 -829 -924 0
-51 131 137 0
130 137 -850 0
-51 137 -850 0
130 131 137 0
51 -130 -137 0
-131 -137 850 0
-57 138 -139 0
-57 138 147 0
57 -138 0
-138 139 -147 0
61 -98 139 -140 0
-61 -98 139 -622 0
98 -139 0
61 -139 140 0
-61 -139 622 0
-63 140 -621 0
63 140 -141 0
-63 -140 621 0
63 -140 141 0
90 141 142 146 0
90 141 142 -145 0
-90 -141 0
-141 -142 0
-141 145 -146 0
142 143 -291 620 0
96 142 143 -291 0
-142 291 0
-142 -143 0
-96 -142 -620 0
-94 143 144 0
94 -143 0
-143 -144 0
67 89 144 0
-89 144 619 0
89 144 296 0
-89 -144 -619 0
-67 89 -144 -296 0
-67 89 145 -296 0
-67 145 -296 466 0
67 -145 0
-145 296 0
-89 -145 -466 0
146 291 619 0
146 291 466 0
89 146 291 0
-146 -291 0
-89 -146 -466 -619 0
-100 141 147 0
140 147 -487 0
-100 147 -487 0
140 141 147 0
100 -140 -147 0
-141 -147 487 0
7 148 -149 0
7 148 156 0
-7 -148 0
-148 149 -156 0
14 -49 149 -150 0
-14 -49 149 -931 0
49 -149 0
14 -149 150 0
-14 -149 931 0
-16 150 -930 0
16 150 -151 0
-16 -150 930 0
16 -150 151 0
41 151 152 155 0
41 151 152 -154 0
-41 -151 0
-151 -152 0
-151 154 -155 0
152 -153 654 -829 0
20 152 654 829 0
-152 -654 0
-152 153 -829 0
-20 -152 829 0
-40 153 928 0
20 40 153 0
-40 -153 -928 0
-20 40 -153 0
-45 153 154 0
45 -154 0
-153 -154 0
47 155 -654 0
155 -654 929 0
-155 654 0
-47 -155 -929 0
-51 151 156 0
150 156 -850 0
-51 156 -850 0
150 151 156 0
51 -150 -156 0
-151 -156 850 0
-57 157 -158 0
-57 157 165 0
57 -157 0
-157 158 -165 0
61 -98 158 -159 0
-61 -98 158 -626 0
98 -158 0
61 -158 159 0
-61 -158 626 0
-63 159 -625 0
63 159 -160 0
-63 -159 625 0
63 -159 160 0
90 160 161 164 0
90 160 161 -163 0
-90 -160 0
-160 -161 0
-160 163 -164 0
161 -162 291 -466 0
67 161 291 466 0
-161 -291 0
-161 162 -466 0
-67 -161 466 0
-89 162 623 0
67 89 162 0
-89 -162 -623 0
-67 89 -162 0
-94 162 163 0
94 -163 0
-162 -163 0
96 164 -291 0
164 -291 624 0
-164 291 0
-96 -164 -624 0
-100 160 165 0
159 165 -487 0
-100 165 -487 0
159 160 165 0
100 -159 -165 0
-160 -165 487 0
-148 166 -167 -210 0
157 166 -167 -210 0
-166 210 0
-166 167 0
148 -157 -166 0
167 -168 -180 201 0
167 168 180 -192 0
167 168 180 201 0
167 -168 -180 -192 0
-167 168 -180 0
-167 -168 180 0
-167 192 -201 0
7 168 -178 0
7 168 -177 0
7 168 -169 0
-7 -168 0
-168 169 177 178 0
169 172 -173 0
-45 169 170 -173 0
-169 173 0
-169 -170 -172 0
45 -169 -172 0
-40 170 947 0
40 170 171 0
-40 -170 -947 0
40 -170 -171 0
-20 171 -946 0
-171 946 0
20 -171 0
47 172 -654 0
172 -654 948 0
-172 654 0
-47 -172 -948 0
173 -174 176 0
-173 174 0
-173 -176 0
41 174 850 0
16 41 174 175 0
-41 -174 0
-174 -175 -850 0
-16 -174 -850 0
-14 53 175 857 0
-52 53 175 -857 0
-53 -175 0
52 -175 -857 0
14 -175 857 0
-170 176 654 -829 0
171 176 654 829 0
-176 -654 0
170 -176 -829 0
-171 -176 829 0
-14 -49 177 -950 0
-177 950 0
14 -177 0
49 -177 0
-16 178 -179 -949 0
-178 949 0
16 -178 0
-178 179 0
175 179 -850 0
-179 850 0
-175 -179 0
-57 180 -181 0
-57 180 -190 0
-57 180 -189 0
57 -180 0
-180 181 189 190 0
181 184 -185 0
-94 181 182 -185 0
-181 185 0
-181 -182 -184 0
94 -181 -184 0
-89 182 642 0
89 182 183 0
-89 -182 -642 0
89 -182 -183 0
-67 183 -641 0
-183 641 0
67 -183 0
96 184 -291 0
184 -291 643 0
-184 291 0
-96 -184 -643 0
185 -186 188 0
-185 186 0
-185 -188 0
90 186 487 0
63 90 186 187 0
-90 -186 0
-186 -187 -487 0
-63 -186 -487 0
-61 102 187 494 0
-101 102 187 -494 0
-102 -187 0
101 -187 -494 0
61 -187 494 0
-182 188 291 -466 0
183 188 291 466 0
-188 -291 0
182 -188 -466 0
-183 -188 466 0
-61 -98 189 -645 0
-189 645 0
61 -189 0
98 -189 0
-63 190 -191 -644 0
-190 644 0
63 -190 0
-190 191 0
187 191 -487 0
-191 487 0
-187 -191 0
7 192 -200 0
7 192 -199 0
7 192 -193 0
-7 -192 0
-192 193 199 200 0
193 196 -197 0
-45 193 194 -197 0
-193 197 0
-193 -194 -196 0
45 -193 -196 0
-40 194 938 0
40 194 195 0
-40 -194 -938 0
40 -194 -195 0
-20 195 -937 0
-195 937 0
20 -195 0
47 196 -654 0
196 -654 939 0
-196 654 0
-47 -196 -939 0
-174 197 198 0
174 -197 0
-197 -198 0
-194 198 654 -829 0
195 198 654 829 0
-198 -654 0
194 -198 -829 0
-195 -198 829 0
-14 -49 199 -941 0
-199 941 0
14 -199 0
49 -199 0
-16 -179 200 -940 0
-200 940 0
16 -200 0
179 -200 0
-57 201 -202 0
-57 201 -209 0
-57 201 -208 0
57 -201 0
-201 202 208 209 0
202 205 -206 0
-94 202 203 -206 0
-202 206 0
-202 -203 -205 0
94 -202 -205 0
-89 203 633 0
89 203 204 0
-89 -203 -633 0
89 -203 -204 0
-67 204 -632 0
-204 632 0
67 -204 0
96 205 -291 0
205 -291 634 0
-205 291 0
-96 -205 -634 0
-186 206 207 0
186 -206 0
-206 -207 0
-203 207 291 -466 0
204 207 291 466 0
-207 -291 0
203 -207 -466 0
-204 -207 466 0
-61 -98 208 -636 0
-208 636 0
61 -208 0
98 -208 0
-63 -191 209 -635 0
-209 635 0
63 -209 0
191 -209 0
192 210 -211 -264 0
-201 210 -211 -264 0
-210 264 0
-210 211 0
-192 201 -210 0
211 212 236 244 -253 0
211 212 -236 -244 -253 0
-211 253 0
-211 -236 244 0
-211 -212 0
-211 236 -244 0
212 213 -223 0
212 -213 223 0
-212 -213 -223 0
-212 213 223 0
213 214 -221 654 0
213 214 -220 -221 0
-213 221 0
-213 -214 0
-213 220 -654 0
214 215 219 0
214 217 219 0
214 215 -217 654 0
-214 -215 -217 0
-214 217 -219 0
-214 -219 -654 0
-21 215 -915 0
-21 35 215 216 0
21 -215 0
-215 -216 915 0
-35 -215 915 0
216 665 952 0
-216 -665 0
-216 -952 0
217 -218 829 830 833 0
-217 218 0
-217 -833 0
-217 -829 0
-217 -830 0
218 831 832 0
-218 -831 0
-218 -832 0
219 773 -953 0
-215 219 -773 0
215 -219 -773 0
-219 773 953 0
46 -219 220 0
-46 -220 0
219 -220 0
9 221 -222 0
12 221 -222 -886 0
-221 222 0
-9 -12 -221 0
-9 -221 886 0
41 55 222 0
41 54 222 0
-41 -222 0
-54 -55 -222 0
223 224 -230 -235 0
223 224 -230 291 0
-223 230 0
-223 -224 0
-223 235 -291 0
224 225 229 0
224 227 229 0
224 225 -227 291 0
-224 -225 -227 0
-224 227 -229 0
-224 -229 -291 0
-72 225 -610 0
68 -72 225 226 0
72 -225 0
-225 -226 610 0
-68 -225 610 0
226 302 647 0
-226 -302 0
-226 -647 0
227 -228 466 467 0
-227 228 0
-227 -467 0
-227 -466 0
228 468 469 470 0
-228 -468 0
-228 -470 0
-228 -469 0
229 410 -648 0
-225 229 -410 0
225 -229 -410 0
-229 410 648 0
-58 230 231 -234 0
58 -230 0
-230 -231 0
-230 234 0
-3 231 233 523 0
-3 231 -232 233 0
3 -231 0
-231 -233 0
-231 232 -523 0
-4 232 0
232 -532 538 0
232 532 539 0
4 -232 -532 -538 0
4 -232 532 -539 0
4 233 -532 538 0
4 233 532 539 0
-4 -233 0
-233 532 -539 0
-233 -532 -538 0
90 104 234 0
90 103 234 0
-90 -234 0
-103 -104 -234 0
95 -229 235 0
-95 -235 0
229 -235 0
-221 236 237 0
221 -236 0
-236 -237 0
217 237 -238 0
237 242 243 0
237 -238 242 0
-237 238 -243 0
-217 -237 -242 0
-237 238 -242 0
238 239 -773 0
-21 238 -241 773 0
-238 -239 -773 0
21 -238 773 0
-238 241 773 0
-21 239 -240 0
21 -239 0
-239 240 0
240 -915 -917 0
35 240 915 0
240 -915 -921 0
-35 -240 915 0
-240 -915 917 921 0
241 -915 917 923 0
-241 915 0
-241 -923 0
-241 -917 0
217 242 654 0
-239 242 654 0
-242 -654 0
-217 239 -242 0
46 243 -654 0
-243 654 0
-46 -243 0
244 -249 291 0
95 244 245 -249 0
-244 249 0
-244 -245 -291 0
-95 -244 -291 0
245 246 -410 0
-72 245 -248 410 0
-245 -246 -410 0
72 -245 410 0
-245 248 410 0
-72 246 -247 0
72 -246 0
-246 247 0
247 -610 -612 0
68 247 610 0
247 -610 -616 0
-68 -247 610 0
-247 -610 612 616 0
248 -610 612 618 0
-248 610 0
-248 -618 0
-248 -612 0
-230 249 -250 251 0
-230 245 249 251 0
230 -249 0
-249 -251 0
-245 -249 250 0
250 466 467 0
-250 -466 0
-250 -467 0
246 251 -252 0
228 -245 251 0
228 251 -252 0
-245 246 251 0
245 -251 252 0
-228 -246 -251 0
-227 252 291 0
-252 -291 0
227 -252 0
253 254 257 260 -261 0
253 -254 -257 260 -261 0
-253 -260 0
-253 254 -257 0
-253 261 0
-253 -254 257 0
-72 -230 254 -255 256 0
-254 255 0
-254 -256 0
72 -254 0
230 -254 0
255 -610 612 0
-255 610 0
-255 -612 0
-95 256 -291 0
-256 291 0
95 -256 0
-21 -221 257 -258 259 0
-257 258 0
-257 -259 0
21 -257 0
221 -257 0
258 -915 917 0
-258 915 0
-258 -917 0
-46 259 -654 0
-259 654 0
46 -259 0
-10 -11 -12 260 0
10 -260 0
11 -260 0
12 -260 0
22 29 261 -262 0
-28 29 261 -262 0
-261 262 0
-29 -261 0
-22 28 -261 0
35 -222 259 262 -263 0
222 -262 0
-259 -262 0
-35 -262 0
-262 263 0
263 -657 -658 0
263 -656 659 0
263 -656 -658 0
263 -657 659 0
-263 658 -659 0
-263 656 657 0
264 -265 -276 0
264 265 276 0
-264 265 -276 0
-264 -265 276 0
265 -268 -274 0
265 266 -274 -850 0
-265 274 0
-265 -266 268 0
-265 268 850 0
16 266 267 0
-16 -266 0
-266 -267 0
-14 267 857 -945 0
14 -267 0
-267 945 0
-267 -857 0
41 268 269 273 0
41 268 269 -272 0
-41 -268 0
-268 -269 0
-268 272 -273 0
269 -271 654 -829 0
269 270 654 829 0
-269 -654 0
-269 271 -829 0
-269 -270 829 0
-20 270 -658 0
-270 658 0
20 -270 0
-40 271 942 0
40 270 271 0
-40 -271 -942 0
40 -270 -271 0
-45 271 272 0
45 -272 0
-271 -272 0
47 273 -654 0
273 -654 943 0
-273 654 0
-47 -273 -943 0
7 274 -275 0
7 -267 274 0
7 274 850 0
-7 -274 0
267 -274 275 -850 0
175 275 -944 0
16 175 275 0
-175 -275 0
-16 -275 944 0
-58 59 276 277 285 0
-276 -285 0
-276 -277 0
58 -276 0
-59 -276 0
277 279 487 0
63 277 278 279 0
-277 -279 0
-277 -278 -487 0
-63 -277 -487 0
-61 278 494 -640 0
61 -278 0
-278 640 0
-278 -494 0
90 279 280 284 0
90 279 280 -283 0
-90 -279 0
-279 -280 0
-279 283 -284 0
280 -282 291 -466 0
280 281 291 466 0
-280 -291 0
-280 282 -466 0
-280 -281 466 0
-67 281 -295 0
-281 295 0
67 -281 0
-89 282 637 0
89 281 282 0
-89 -282 -637 0
89 -281 -282 0
-94 282 283 0
94 -283 0
-282 -283 0
96 284 -291 0
284 -291 638 0
-284 291 0
-96 -284 -638 0
-187 285 -286 0
-63 285 -286 639 0
-285 286 0
187 -285 -639 0
63 187 -285 0
278 286 -487 0
-286 487 0
-278 -286 0
68 -234 287 288 -289 0
234 -287 0
-287 -288 0
-68 -287 0
-287 289 0
80 84 86 288 0
-80 -288 0
-86 -288 0
-84 -288 0
-58 73 256 289 -290 0
-289 290 0
-256 -289 0
58 -289 0
-73 -289 0
290 -294 -295 0
290 -293 296 0
290 -293 -295 0
290 -294 296 0
-290 295 -296 0
-290 293 294 0
1 2 0
-1 -2 0
959 0

